Medium-instances_NetworkFacilityLocation/2023-03-27_20hr-25min-09sec/Nodes40_Arcs65_LocNodes30/Formulation-1Instance-5.lp
\ Model LocPrice
\ LP format - for model browsing. Use MPS format to capture full model detail.
Maximize
  - 152 x[2] - 194 x[3] - 166 x[4] - 182 x[5] - 176 x[7] - 152 x[8]
   - 156 x[9] - 179 x[10] - 160 x[11] - 176 x[12] - 159 x[13] - 181 x[14]
   - 161 x[15] - 180 x[16] - 168 x[18] - 190 x[19] - 164 x[20] - 165 x[21]
   - 196 x[22] - 152 x[25] - 151 x[27] - 189 x[28] - 178 x[29] - 169 x[31]
   - 181 x[32] - 169 x[33] - 184 x[34] - 173 x[36] - 165 x[37] - 168 x[38]
   - 4.203048123934098 Q[2] - 4.406767598512779 Q[3]
   - 3.128208600315979 Q[4] - 3.765062789775636 Q[5]
   - 3.483695663016202 Q[7] - 4.759531977405583 Q[8]
   - 3.71799353832714 Q[9] - 3.470628714231166 Q[10]
   - 4.690111988222307 Q[11] - 3.367085894477165 Q[12]
   - 3.788750490233681 Q[13] - 4.826307762931751 Q[14]
   - 3.049166665535859 Q[15] - 3.309097278469395 Q[16]
   - 3.996745970280133 Q[18] - 3.907400584953312 Q[19]
   - 4.946525320227448 Q[20] - 4.787778718456176 Q[21]
   - 4.29522544542812 Q[22] - 3.062207306131904 Q[25]
   - 3.37129202772421 Q[27] - 4.112366003014096 Q[28]
   - 3.859850121426615 Q[29] - 4.929925841018859 Q[31]
   - 3.92348904925597 Q[32] - 4.901913303106816 Q[33]
   - 3.37375571871342 Q[34] - 4.703520901885242 Q[36]
   - 4.287643718115397 Q[37] - 4.723046427077706 Q[38] + [ 2 pi[2] * Q[2]
   + 2 pi[3] * Q[3] + 2 pi[4] * Q[4] + 2 pi[5] * Q[5] + 2 pi[7] * Q[7]
   + 2 pi[8] * Q[8] + 2 pi[9] * Q[9] + 2 pi[10] * Q[10] + 2 pi[11] * Q[11]
   + 2 pi[12] * Q[12] + 2 pi[13] * Q[13] + 2 pi[14] * Q[14]
   + 2 pi[15] * Q[15] + 2 pi[16] * Q[16] + 2 pi[18] * Q[18]
   + 2 pi[19] * Q[19] + 2 pi[20] * Q[20] + 2 pi[21] * Q[21]
   + 2 pi[22] * Q[22] + 2 pi[25] * Q[25] + 2 pi[27] * Q[27]
   + 2 pi[28] * Q[28] + 2 pi[29] * Q[29] + 2 pi[31] * Q[31]
   + 2 pi[32] * Q[32] + 2 pi[33] * Q[33] + 2 pi[34] * Q[34]
   + 2 pi[36] * Q[36] + 2 pi[37] * Q[37] + 2 pi[38] * Q[38] ] / 2 
Subject To
 R0: Q[2] + Q[3] + Q[4] + Q[5] + Q[7] + Q[8] + Q[9] + Q[10] + Q[11] + Q[12]
   + Q[13] + Q[14] + Q[15] + Q[16] + Q[18] + Q[19] + Q[20] + Q[21] + Q[22]
   + Q[25] + Q[27] + Q[28] + Q[29] + Q[31] + Q[32] + Q[33] + Q[34] + Q[36]
   + Q[37] + Q[38] <= 2625
 R1: - 148 x[2] + Q[2] <= 0
 R2: - 162 x[3] + Q[3] <= 0
 R3: - 138 x[4] + Q[4] <= 0
 R4: - 188 x[5] + Q[5] <= 0
 R5: - 179 x[7] + Q[7] <= 0
 R6: - 163 x[8] + Q[8] <= 0
 R7: - 126 x[9] + Q[9] <= 0
 R8: - 138 x[10] + Q[10] <= 0
 R9: - 181 x[11] + Q[11] <= 0
 R10: - 107 x[12] + Q[12] <= 0
 R11: - 135 x[13] + Q[13] <= 0
 R12: - 152 x[14] + Q[14] <= 0
 R13: - 133 x[15] + Q[15] <= 0
 R14: - 122 x[16] + Q[16] <= 0
 R15: - 191 x[18] + Q[18] <= 0
 R16: - 187 x[19] + Q[19] <= 0
 R17: - 187 x[20] + Q[20] <= 0
 R18: - 115 x[21] + Q[21] <= 0
 R19: - 154 x[22] + Q[22] <= 0
 R20: - 129 x[25] + Q[25] <= 0
 R21: - 182 x[27] + Q[27] <= 0
 R22: - 193 x[28] + Q[28] <= 0
 R23: - 186 x[29] + Q[29] <= 0
 R24: - 145 x[31] + Q[31] <= 0
 R25: - 176 x[32] + Q[32] <= 0
 R26: - 119 x[33] + Q[33] <= 0
 R27: - 158 x[34] + Q[34] <= 0
 R28: - 121 x[36] + Q[36] <= 0
 R29: - 173 x[37] + Q[37] <= 0
 R30: - 104 x[38] + Q[38] <= 0
 node[5]: - Q[5] + f[5,2] - f[10,5] - f[12,5] - f[13,5] - f[8,5] + f[5,34]
   - f[3,5] = 0
 node[15]: - Q[15] + f[15,1] - f[24,15] + f[15,2] + f[15,3] = 0
 node[18]: - Q[18] + f[18,17] + f[18,27] = 0
 node[19]: - Q[19] + f[19,17] - f[21,19] - f[27,19] - f[30,19] + f[19,4]
   - f[12,19] + f[19,12] = 0
 node[22]: - Q[22] + f[22,10] + f[22,28] = 0
 node[25]: - Q[25] + f[25,10] + f[25,9] = 0
 node[28]: - Q[28] + f[28,9] - f[22,28] = 0
 node[29]: - Q[29] + f[29,16] - f[36,29] + f[29,21] = 0
 node[33]: - Q[33] + f[33,20] - S[33] = 0
 node[4]: - Q[4] + f[4,1] - f[19,4] - S[4] = 0
 node[38]: - Q[38] + f[38,1] - S[38] = 0
 node[10]: - Q[10] + f[10,5] - f[22,10] - f[25,10] - f[32,10] - S[10] = 0
 node[13]: - Q[13] + f[13,5] - f[23,13] - f[40,13] - f[1,13] - S[13] = 0
 node[14]: - Q[14] + f[14,1] - f[20,14] - f[17,14] - S[14] = 0
 node[16]: - Q[16] + f[16,2] - f[29,16] - f[26,16] - S[16] = 0
 node[27]: - Q[27] + f[27,19] - f[34,27] - f[18,27] - S[27] = 0
 node[3]: - Q[3] + f[3,2] - f[6,3] - f[11,3] - f[30,3] + f[3,5] - f[15,3]
   + D[3] = 0
 node[7]: - Q[7] + f[7,6] - f[26,7] - f[31,7] + D[7] = 0
 node[9]: - Q[9] + f[9,2] - f[28,9] + f[9,11] + f[9,8] - f[25,9] + D[9]
   = 0
 node[11]: - Q[11] + f[11,3] - f[17,11] - f[9,11] + f[11,30] + D[11] = 0
 node[20]: - Q[20] + f[20,14] - f[33,20] + D[20] = 0
 node[31]: - Q[31] + f[31,7] - f[21,31] + D[31] = 0
 node[32]: - Q[32] + f[32,2] - f[12,32] + f[32,10] + D[32] - S[32] = 0
 node[2]: - Q[2] + f[2,1] - f[3,2] - f[5,2] - f[9,2] - f[16,2] - f[32,2]
   - f[15,2] + D[2] - S[2] = 0
 node[34]: - Q[34] + f[34,27] - f[37,34] - f[5,34] + D[34] - S[34] = 0
 node[36]: - Q[36] + f[36,29] - f[24,36] + D[36] - S[36] = 0
 node[37]: - Q[37] + f[37,34] + D[37] - S[37] = 0
 node[8]: - Q[8] + f[8,1] + f[8,5] - f[9,8] + D[8] - S[8] = 0
 node[12]: - Q[12] + f[12,5] + f[12,32] + f[12,19] - f[19,12] - f[21,12]
   + D[12] - S[12] = 0
 node[21]: - Q[21] + f[21,19] - f[29,21] + f[21,31] + f[21,12] + D[21]
   - S[21] = 0
 node[17]: f[17,11] - f[18,17] - f[19,17] + f[17,14] = 0
 node[30]: f[30,3] - f[35,30] - f[39,30] + f[30,19] - f[11,30] = 0
 node[23]: f[23,13] = 0
 node[39]: f[39,30] + f[39,6] - S[39] = 0
 node[24]: f[24,15] + f[24,36] + D[24] = 0
 node[26]: f[26,7] + f[26,16] + D[26] = 0
 node[6]: f[6,3] - f[7,6] - f[35,6] - f[39,6] + D[6] = 0
 node[40]: f[40,13] + D[40] - S[40] = 0
 node[1]: - f[2,1] - f[4,1] - f[8,1] - f[14,1] - f[15,1] - f[38,1]
   + f[1,13] + D[1] - S[1] = 0
 node[35]: f[35,30] + f[35,6] + D[35] - S[35] = 0
 Cost_Flow[2,1]: - pi[1] + pi[2] + 1.412803681046439 f[2,1] - mu_f[2,1]
   = -2.106701522845839
 Cost_Flow[3,2]: - pi[2] + pi[3] + 1.246798338399202 f[3,2] - mu_f[3,2]
   = -2.144087278056182
 Cost_Flow[4,1]: - pi[1] + pi[4] + 0.3651559916914278 f[4,1] - mu_f[4,1]
   = -1.209759136659278
 Cost_Flow[5,2]: - pi[2] + pi[5] + 0.1812630799037807 f[5,2] - mu_f[5,2]
   = -1.426798176364459
 Cost_Flow[6,3]: - pi[3] + pi[6] + 0.1246148174718944 f[6,3] - mu_f[6,3]
   = -1.452392793009986
 Cost_Flow[7,6]: - pi[6] + pi[7] + 0.2946384055895381 f[7,6] - mu_f[7,6]
   = -2.839658381536603
 Cost_Flow[8,1]: - pi[1] + pi[8] + 0.4582764947569415 f[8,1] - mu_f[8,1]
   = -0.3151657752463415
 Cost_Flow[9,2]: - pi[2] + pi[9] + 0.4791950179959716 f[9,2] - mu_f[9,2]
   = -1.903360059840979
 Cost_Flow[10,5]: - pi[5] + pi[10] + 0.4309645891729192 f[10,5]
   - mu_f[10,5] = -1.423179605543039
 Cost_Flow[11,3]: - pi[3] + pi[11] + 0.8956566764573586 f[11,3]
   - mu_f[11,3] = -2.46707395858146
 Cost_Flow[12,5]: - pi[5] + pi[12] + 1.299582433232778 f[12,5] - mu_f[12,5]
   = -0.6492313382477832
 Cost_Flow[13,5]: - pi[5] + pi[13] + 1.735324451048082 f[13,5] - mu_f[13,5]
   = -2.823799206819063
 Cost_Flow[14,1]: - pi[1] + pi[14] + 1.80639045716746 f[14,1] - mu_f[14,1]
   = -2.350719851489082
 Cost_Flow[15,1]: - pi[1] + pi[15] + 0.3565235426058007 f[15,1]
   - mu_f[15,1] = -2.314615510744431
 Cost_Flow[16,2]: - pi[2] + pi[16] + 1.926320104851925 f[16,2] - mu_f[16,2]
   = -2.613595423309238
 Cost_Flow[17,11]: - pi[11] + pi[17] + 1.293885121385309 f[17,11]
   - mu_f[17,11] = -0.6099214834836225
 Cost_Flow[18,17]: - pi[17] + pi[18] + 0.6142548445850802 f[18,17]
   - mu_f[18,17] = -0.7275462018134965
 Cost_Flow[19,17]: - pi[17] + pi[19] + 1.535483913586738 f[19,17]
   - mu_f[19,17] = -0.2832815846142758
 Cost_Flow[20,14]: - pi[14] + pi[20] + 0.5165771047832244 f[20,14]
   - mu_f[20,14] = -1.886244736970062
 Cost_Flow[21,19]: - pi[19] + pi[21] + 1.34848744374542 f[21,19]
   - mu_f[21,19] = -2.88919761440266
 Cost_Flow[22,10]: - pi[10] + pi[22] + 0.5902279063681439 f[22,10]
   - mu_f[22,10] = -0.5547683192312235
 Cost_Flow[23,13]: - pi[13] + pi[23] + 1.101472917951268 f[23,13]
   - mu_f[23,13] = -0.6149432519027273
 Cost_Flow[24,15]: - pi[15] + pi[24] + 0.1755087052764652 f[24,15]
   - mu_f[24,15] = -1.490625322665157
 Cost_Flow[25,10]: - pi[10] + pi[25] + 1.817672579676992 f[25,10]
   - mu_f[25,10] = -2.913265481967294
 Cost_Flow[26,7]: - pi[7] + pi[26] + 0.1658530278842796 f[26,7]
   - mu_f[26,7] = -1.883857217254678
 Cost_Flow[27,19]: - pi[19] + pi[27] + 1.510141344489492 f[27,19]
   - mu_f[27,19] = -2.218357418231054
 Cost_Flow[28,9]: - pi[9] + pi[28] + 0.5168453951110967 f[28,9]
   - mu_f[28,9] = -1.638939869498767
 Cost_Flow[29,16]: - pi[16] + pi[29] + 0.4537315592015674 f[29,16]
   - mu_f[29,16] = -2.269703799131458
 Cost_Flow[30,3]: - pi[3] + pi[30] + 1.947646224992023 f[30,3] - mu_f[30,3]
   = -1.836611511226222
 Cost_Flow[31,7]: - pi[7] + pi[31] + 0.3249623942845601 f[31,7]
   - mu_f[31,7] = -2.337327159887522
 Cost_Flow[32,2]: - pi[2] + pi[32] + 1.563729584469201 f[32,2] - mu_f[32,2]
   = -0.8569362245664937
 Cost_Flow[33,20]: - pi[20] + pi[33] + 1.080488440933043 f[33,20]
   - mu_f[33,20] = -2.625015927309619
 Cost_Flow[34,27]: - pi[27] + pi[34] + 0.5979245429879754 f[34,27]
   - mu_f[34,27] = -2.247226682235035
 Cost_Flow[35,30]: - pi[30] + pi[35] + 0.280768606937974 f[35,30]
   - mu_f[35,30] = -0.899478827829584
 Cost_Flow[36,29]: - pi[29] + pi[36] + 1.892481466962426 f[36,29]
   - mu_f[36,29] = -0.8063346922759708
 Cost_Flow[37,34]: - pi[34] + pi[37] + 1.17450889643655 f[37,34]
   - mu_f[37,34] = -2.510036071387344
 Cost_Flow[38,1]: - pi[1] + pi[38] + 1.760793928819965 f[38,1] - mu_f[38,1]
   = -1.281613063752559
 Cost_Flow[39,30]: - pi[30] + pi[39] + 0.9196962413044751 f[39,30]
   - mu_f[39,30] = -1.497326613058343
 Cost_Flow[40,13]: - pi[13] + pi[40] + 0.5916225936508974 f[40,13]
   - mu_f[40,13] = -2.637747177323001
 Cost_Flow[9,11]: pi[9] - pi[11] + 0.4059986395715518 f[9,11] - mu_f[9,11]
   = -1.388391111614865
 Cost_Flow[29,21]: - pi[21] + pi[29] + 1.247620400037399 f[29,21]
   - mu_f[29,21] = -2.644891843481643
 Cost_Flow[12,32]: pi[12] - pi[32] + 1.554979314521457 f[12,32]
   - mu_f[12,32] = -2.398180188057078
 Cost_Flow[30,19]: - pi[19] + pi[30] + 1.16234053078091 f[30,19]
   - mu_f[30,19] = -0.9430197027231154
 Cost_Flow[35,6]: - pi[6] + pi[35] + 1.123008807816699 f[35,6] - mu_f[35,6]
   = -0.3407195911876966
 Cost_Flow[1,13]: pi[1] - pi[13] + 1.031551728548053 f[1,13] - mu_f[1,13]
   = -0.6006565531083418
 Cost_Flow[19,4]: - pi[4] + pi[19] + 1.26025174190037 f[19,4] - mu_f[19,4]
   = -0.5292071266008455
 Cost_Flow[8,5]: - pi[5] + pi[8] + 1.058989521945765 f[8,5] - mu_f[8,5]
   = -0.9427539680242566
 Cost_Flow[9,8]: - pi[8] + pi[9] + 1.287423851166209 f[9,8] - mu_f[9,8]
   = -1.14502403698311
 Cost_Flow[26,16]: - pi[16] + pi[26] + 0.0242348450325927 f[26,16]
   - mu_f[26,16] = -0.7889463666996541
 Cost_Flow[25,9]: - pi[9] + pi[25] + 1.902674663271164 f[25,9] - mu_f[25,9]
   = -0.6831161499170251
 Cost_Flow[11,30]: pi[11] - pi[30] + 0.8465245460471069 f[11,30]
   - mu_f[11,30] = -0.1311028289333411
 Cost_Flow[32,10]: - pi[10] + pi[32] + 1.577015953043238 f[32,10]
   - mu_f[32,10] = -0.1520479054193843
 Cost_Flow[12,19]: pi[12] - pi[19] + 0.7408974774836132 f[12,19]
   - mu_f[12,19] = -0.1318873258748224
 Cost_Flow[19,12]: - pi[12] + pi[19] + 1.226924886486843 f[19,12]
   - mu_f[19,12] = -1.874071399588841
 Cost_Flow[17,14]: - pi[14] + pi[17] + 0.1450250904170229 f[17,14]
   - mu_f[17,14] = -2.476546033402616
 Cost_Flow[15,2]: - pi[2] + pi[15] + 0.4040552123004046 f[15,2]
   - mu_f[15,2] = -0.6814403694806912
 Cost_Flow[22,28]: pi[22] - pi[28] + 1.022126850699734 f[22,28]
   - mu_f[22,28] = -0.7508895442483258
 Cost_Flow[39,6]: - pi[6] + pi[39] + 1.24110735564291 f[39,6] - mu_f[39,6]
   = -2.793631611239592
 Cost_Flow[24,36]: pi[24] - pi[36] + 0.6221507622096361 f[24,36]
   - mu_f[24,36] = -0.668244360053722
 Cost_Flow[5,34]: pi[5] - pi[34] + 1.984216538047361 f[5,34] - mu_f[5,34]
   = -0.2497408737093609
 Cost_Flow[21,31]: pi[21] - pi[31] + 0.7998528321376062 f[21,31]
   - mu_f[21,31] = -0.5350725832268369
 Cost_Flow[21,12]: - pi[12] + pi[21] + 1.728549368037396 f[21,12]
   - mu_f[21,12] = -2.823253906812738
 Cost_Flow[3,5]: pi[3] - pi[5] + 0.3439798055224554 f[3,5] - mu_f[3,5]
   = -2.973330032410172
 Cost_Flow[18,27]: pi[18] - pi[27] + 0.2354513028998586 f[18,27]
   - mu_f[18,27] = -0.5136648573470727
 Cost_Flow[15,3]: - pi[3] + pi[15] + 1.148943858629616 f[15,3] - mu_f[15,3]
   = -2.88720451408065
 Cost_Demand[1]: pi[1] + 3.581015961965602 D[1] - mu_D[1] = 1497
 Cost_Demand[2]: pi[2] + 3.263953892084908 D[2] - mu_D[2] = 1415
 Cost_Demand[3]: pi[3] + 3.451037175534762 D[3] - mu_D[3] = 1385
 Cost_Demand[6]: pi[6] + 3.382030345975411 D[6] - mu_D[6] = 1414
 Cost_Demand[7]: pi[7] + 3.023801429513904 D[7] - mu_D[7] = 1373
 Cost_Demand[8]: pi[8] + 3.923733817629218 D[8] - mu_D[8] = 1387
 Cost_Demand[9]: pi[9] + 3.010842177605622 D[9] - mu_D[9] = 1480
 Cost_Demand[11]: pi[11] + 3.298757376527257 D[11] - mu_D[11] = 1354
 Cost_Demand[12]: pi[12] + 3.934782612400482 D[12] - mu_D[12] = 1309
 Cost_Demand[20]: pi[20] + 3.99696647724522 D[20] - mu_D[20] = 1340
 Cost_Demand[21]: pi[21] + 3.671520440047916 D[21] - mu_D[21] = 1384
 Cost_Demand[24]: pi[24] + 3.418796689284422 D[24] - mu_D[24] = 1356
 Cost_Demand[26]: pi[26] + 3.381635607150033 D[26] - mu_D[26] = 1487
 Cost_Demand[31]: pi[31] + 3.383804232714405 D[31] - mu_D[31] = 1327
 Cost_Demand[32]: pi[32] + 3.538558452595817 D[32] - mu_D[32] = 1447
 Cost_Demand[34]: pi[34] + 3.671108957396591 D[34] - mu_D[34] = 1436
 Cost_Demand[35]: pi[35] + 3.186374047592679 D[35] - mu_D[35] = 1462
 Cost_Demand[36]: pi[36] + 3.518993314002098 D[36] - mu_D[36] = 1365
 Cost_Demand[37]: pi[37] + 3.539991274352849 D[37] - mu_D[37] = 1467
 Cost_Demand[40]: pi[40] + 3.157792319139641 D[40] - mu_D[40] = 1482
 Cost_Supply[1]: - pi[1] + 0.0051047788361358 S[1] - mu_S[1]
   = -1.410644590674564
 Cost_Supply[2]: - pi[2] + 0.0948283815895232 S[2] - mu_S[2]
   = -1.554388517944162
 Cost_Supply[4]: - pi[4] + 0.8490306083855258 S[4] - mu_S[4]
   = -1.700029596833386
 Cost_Supply[8]: - pi[8] + 0.6055201771733307 S[8] - mu_S[8]
   = -1.372352841632616
 Cost_Supply[10]: - pi[10] + 0.7742126693092963 S[10] - mu_S[10]
   = -1.291956597050426
 Cost_Supply[12]: - pi[12] + 0.420079548499083 S[12] - mu_S[12]
   = -1.72295525934439
 Cost_Supply[13]: - pi[13] + 0.6658182105159381 S[13] - mu_S[13]
   = -1.690943233184823
 Cost_Supply[14]: - pi[14] + 0.6963513537207333 S[14] - mu_S[14]
   = -1.496200972332485
 Cost_Supply[16]: - pi[16] + 0.2022258717169878 S[16] - mu_S[16]
   = -1.69075275294865
 Cost_Supply[21]: - pi[21] + 0.0373574655275596 S[21] - mu_S[21]
   = -1.675764017900385
 Cost_Supply[27]: - pi[27] + 0.1012631060999616 S[27] - mu_S[27]
   = -1.575286487406975
 Cost_Supply[32]: - pi[32] + 0.3608553426809299 S[32] - mu_S[32]
   = -1.820220398890976
 Cost_Supply[33]: - pi[33] + 0.2534072065508474 S[33] - mu_S[33]
   = -1.759948577399428
 Cost_Supply[34]: - pi[34] + 0.7993607028033677 S[34] - mu_S[34]
   = -1.722988447531747
 Cost_Supply[35]: - pi[35] + 0.8723707894471328 S[35] - mu_S[35]
   = -1.893532799769414
 Cost_Supply[36]: - pi[36] + 0.1461244042688595 S[36] - mu_S[36]
   = -1.000434048808742
 Cost_Supply[37]: - pi[37] + 0.9426634716644197 S[37] - mu_S[37]
   = -1.811030991040847
 Cost_Supply[38]: - pi[38] + 0.9443354737438289 S[38] - mu_S[38]
   = -1.166847486420102
 Cost_Supply[39]: - pi[39] + 0.9306861981862143 S[39] - mu_S[39]
   = -1.074011939065425
 Cost_Supply[40]: - pi[40] + 0.4333215246410947 S[40] - mu_S[40]
   = -1.125157882485388
Bounds
Binaries
 x[2] x[3] x[4] x[5] x[7] x[8] x[9] x[10] x[11] x[12] x[13] x[14] x[15]
 x[16] x[18] x[19] x[20] x[21] x[22] x[25] x[27] x[28] x[29] x[31] x[32]
 x[33] x[34] x[36] x[37] x[38]
SOS
 s0:  S1 :: f[2,1]:1 mu_f[2,1]:2
 s1:  S1 :: f[3,2]:1 mu_f[3,2]:2
 s2:  S1 :: f[4,1]:1 mu_f[4,1]:2
 s3:  S1 :: f[5,2]:1 mu_f[5,2]:2
 s4:  S1 :: f[6,3]:1 mu_f[6,3]:2
 s5:  S1 :: f[7,6]:1 mu_f[7,6]:2
 s6:  S1 :: f[8,1]:1 mu_f[8,1]:2
 s7:  S1 :: f[9,2]:1 mu_f[9,2]:2
 s8:  S1 :: f[10,5]:1 mu_f[10,5]:2
 s9:  S1 :: f[11,3]:1 mu_f[11,3]:2
 s10:  S1 :: f[12,5]:1 mu_f[12,5]:2
 s11:  S1 :: f[13,5]:1 mu_f[13,5]:2
 s12:  S1 :: f[14,1]:1 mu_f[14,1]:2
 s13:  S1 :: f[15,1]:1 mu_f[15,1]:2
 s14:  S1 :: f[16,2]:1 mu_f[16,2]:2
 s15:  S1 :: f[17,11]:1 mu_f[17,11]:2
 s16:  S1 :: f[18,17]:1 mu_f[18,17]:2
 s17:  S1 :: f[19,17]:1 mu_f[19,17]:2
 s18:  S1 :: f[20,14]:1 mu_f[20,14]:2
 s19:  S1 :: f[21,19]:1 mu_f[21,19]:2
 s20:  S1 :: f[22,10]:1 mu_f[22,10]:2
 s21:  S1 :: f[23,13]:1 mu_f[23,13]:2
 s22:  S1 :: f[24,15]:1 mu_f[24,15]:2
 s23:  S1 :: f[25,10]:1 mu_f[25,10]:2
 s24:  S1 :: f[26,7]:1 mu_f[26,7]:2
 s25:  S1 :: f[27,19]:1 mu_f[27,19]:2
 s26:  S1 :: f[28,9]:1 mu_f[28,9]:2
 s27:  S1 :: f[29,16]:1 mu_f[29,16]:2
 s28:  S1 :: f[30,3]:1 mu_f[30,3]:2
 s29:  S1 :: f[31,7]:1 mu_f[31,7]:2
 s30:  S1 :: f[32,2]:1 mu_f[32,2]:2
 s31:  S1 :: f[33,20]:1 mu_f[33,20]:2
 s32:  S1 :: f[34,27]:1 mu_f[34,27]:2
 s33:  S1 :: f[35,30]:1 mu_f[35,30]:2
 s34:  S1 :: f[36,29]:1 mu_f[36,29]:2
 s35:  S1 :: f[37,34]:1 mu_f[37,34]:2
 s36:  S1 :: f[38,1]:1 mu_f[38,1]:2
 s37:  S1 :: f[39,30]:1 mu_f[39,30]:2
 s38:  S1 :: f[40,13]:1 mu_f[40,13]:2
 s39:  S1 :: f[9,11]:1 mu_f[9,11]:2
 s40:  S1 :: f[29,21]:1 mu_f[29,21]:2
 s41:  S1 :: f[12,32]:1 mu_f[12,32]:2
 s42:  S1 :: f[30,19]:1 mu_f[30,19]:2
 s43:  S1 :: f[35,6]:1 mu_f[35,6]:2
 s44:  S1 :: f[1,13]:1 mu_f[1,13]:2
 s45:  S1 :: f[19,4]:1 mu_f[19,4]:2
 s46:  S1 :: f[8,5]:1 mu_f[8,5]:2
 s47:  S1 :: f[9,8]:1 mu_f[9,8]:2
 s48:  S1 :: f[26,16]:1 mu_f[26,16]:2
 s49:  S1 :: f[25,9]:1 mu_f[25,9]:2
 s50:  S1 :: f[11,30]:1 mu_f[11,30]:2
 s51:  S1 :: f[32,10]:1 mu_f[32,10]:2
 s52:  S1 :: f[12,19]:1 mu_f[12,19]:2
 s53:  S1 :: f[19,12]:1 mu_f[19,12]:2
 s54:  S1 :: f[17,14]:1 mu_f[17,14]:2
 s55:  S1 :: f[15,2]:1 mu_f[15,2]:2
 s56:  S1 :: f[22,28]:1 mu_f[22,28]:2
 s57:  S1 :: f[39,6]:1 mu_f[39,6]:2
 s58:  S1 :: f[24,36]:1 mu_f[24,36]:2
 s59:  S1 :: f[5,34]:1 mu_f[5,34]:2
 s60:  S1 :: f[21,31]:1 mu_f[21,31]:2
 s61:  S1 :: f[21,12]:1 mu_f[21,12]:2
 s62:  S1 :: f[3,5]:1 mu_f[3,5]:2
 s63:  S1 :: f[18,27]:1 mu_f[18,27]:2
 s64:  S1 :: f[15,3]:1 mu_f[15,3]:2
 s65:  S1 :: D[1]:1 mu_D[1]:2
 s66:  S1 :: D[2]:1 mu_D[2]:2
 s67:  S1 :: D[3]:1 mu_D[3]:2
 s68:  S1 :: D[6]:1 mu_D[6]:2
 s69:  S1 :: D[7]:1 mu_D[7]:2
 s70:  S1 :: D[8]:1 mu_D[8]:2
 s71:  S1 :: D[9]:1 mu_D[9]:2
 s72:  S1 :: D[11]:1 mu_D[11]:2
 s73:  S1 :: D[12]:1 mu_D[12]:2
 s74:  S1 :: D[20]:1 mu_D[20]:2
 s75:  S1 :: D[21]:1 mu_D[21]:2
 s76:  S1 :: D[24]:1 mu_D[24]:2
 s77:  S1 :: D[26]:1 mu_D[26]:2
 s78:  S1 :: D[31]:1 mu_D[31]:2
 s79:  S1 :: D[32]:1 mu_D[32]:2
 s80:  S1 :: D[34]:1 mu_D[34]:2
 s81:  S1 :: D[35]:1 mu_D[35]:2
 s82:  S1 :: D[36]:1 mu_D[36]:2
 s83:  S1 :: D[37]:1 mu_D[37]:2
 s84:  S1 :: D[40]:1 mu_D[40]:2
 s85:  S1 :: S[1]:1 mu_S[1]:2
 s86:  S1 :: S[2]:1 mu_S[2]:2
 s87:  S1 :: S[4]:1 mu_S[4]:2
 s88:  S1 :: S[8]:1 mu_S[8]:2
 s89:  S1 :: S[10]:1 mu_S[10]:2
 s90:  S1 :: S[12]:1 mu_S[12]:2
 s91:  S1 :: S[13]:1 mu_S[13]:2
 s92:  S1 :: S[14]:1 mu_S[14]:2
 s93:  S1 :: S[16]:1 mu_S[16]:2
 s94:  S1 :: S[21]:1 mu_S[21]:2
 s95:  S1 :: S[27]:1 mu_S[27]:2
 s96:  S1 :: S[32]:1 mu_S[32]:2
 s97:  S1 :: S[33]:1 mu_S[33]:2
 s98:  S1 :: S[34]:1 mu_S[34]:2
 s99:  S1 :: S[35]:1 mu_S[35]:2
 s100:  S1 :: S[36]:1 mu_S[36]:2
 s101:  S1 :: S[37]:1 mu_S[37]:2
 s102:  S1 :: S[38]:1 mu_S[38]:2
 s103:  S1 :: S[39]:1 mu_S[39]:2
 s104:  S1 :: S[40]:1 mu_S[40]:2
End
